p cnf 7230 17
-2330 -3070 3533 0
3070 -3533 0
-1750 -3014 -3538 0
-1748 -3010 -3536 0
-2336 -3090 -3534 0
1750 -3539 0
1748 -3537 0
2336 -3535 0
3538 3539 0
3536 3537 0
3534 3535 0
3014 -3539 0
3010 -3537 0
3090 -3535 0
2350 -3541 0
3532 3533 0
-3532 -3533 0
